33D32945 STP File, STP Format Version 1.0

SECTION Comment
Name    "Series C" 
Creator "A. M. Costa" 
Format  "Z.H. Fu and J. K. Hao"
Remark  "Sparse graph with random weights"
#TotalEdgeCost 5458
#BudgetFraction 50
END 

SECTION Graph 
Nodes 500 
Edges 1000 
Root 1
Budget 109
HopLimit 25
E 1 30 10 
E 1 150 2 
E 1 151 7 
E 1 155 6 
E 1 298 3 
E 1 342 2 
E 1 348 1 
E 1 488 7 
E 2 17 4 
E 2 425 4 
E 3 339 1 
E 3 484 8 
E 4 151 2 
E 4 211 9 
E 4 228 8 
E 4 438 6 
E 5 142 6 
E 5 175 2 
E 5 316 8 
E 5 451 2 
E 5 452 7 
E 5 473 3 
E 6 195 4 
E 6 202 4 
E 6 389 2 
E 6 440 4 
E 7 306 7 
E 7 380 5 
E 7 436 2 
E 8 172 5 
E 8 299 4 
E 8 322 9 
E 8 342 6 
E 8 350 1 
E 8 475 7 
E 9 281 1 
E 9 295 10 
E 9 418 3 
E 9 480 3 
E 10 137 7 
E 10 139 6 
E 10 293 1 
E 10 492 6 
E 11 171 5 
E 11 263 5 
E 12 45 7 
E 12 132 3 
E 12 452 3 
E 12 477 9 
E 13 82 5 
E 13 159 7 
E 13 199 3 
E 13 400 6 
E 13 441 7 
E 14 159 7 
E 14 271 5 
E 14 388 1 
E 14 409 7 
E 14 413 4 
E 15 381 2 
E 15 466 1 
E 16 23 8 
E 17 52 2 
E 17 72 10 
E 17 117 6 
E 17 121 1 
E 17 182 1 
E 17 328 7 
E 17 356 1 
E 17 382 2 
E 18 266 9 
E 18 272 9 
E 18 309 10 
E 18 427 8 
E 19 38 6 
E 19 58 5 
E 19 232 3 
E 19 305 10 
E 19 331 3 
E 20 179 1 
E 20 214 6 
E 20 268 8 
E 20 321 1 
E 20 325 6 
E 20 326 9 
E 20 420 9 
E 20 436 4 
E 20 450 6 
E 21 101 8 
E 21 287 3 
E 22 57 4 
E 22 171 5 
E 22 282 10 
E 22 371 4 
E 22 427 2 
E 23 184 7 
E 23 232 6 
E 23 289 9 
E 23 347 4 
E 23 405 5 
E 24 126 1 
E 24 296 10 
E 24 343 1 
E 25 35 9 
E 25 249 7 
E 25 365 4 
E 25 382 2 
E 26 56 10 
E 26 235 4 
E 26 247 1 
E 26 282 1 
E 26 393 3 
E 26 463 3 
E 26 486 6 
E 27 52 1 
E 27 269 1 
E 27 329 5 
E 27 350 8 
E 28 32 4 
E 28 198 9 
E 28 236 10 
E 28 240 8 
E 28 288 6 
E 28 295 6 
E 28 408 8 
E 28 466 5 
E 28 500 6 
E 29 313 7 
E 29 449 1 
E 29 463 8 
E 30 253 5 
E 30 400 4 
E 30 412 9 
E 31 69 3 
E 31 218 5 
E 32 125 1 
E 32 131 6 
E 32 229 7 
E 32 397 4 
E 33 382 8 
E 33 467 2 
E 34 105 6 
E 34 135 2 
E 34 436 8 
E 35 131 4 
E 35 286 3 
E 35 373 5 
E 35 447 9 
E 36 106 8 
E 36 149 4 
E 36 348 3 
E 36 418 6 
E 36 447 5 
E 36 466 2 
E 36 489 2 
E 37 146 1 
E 37 167 6 
E 37 230 7 
E 37 280 9 
E 37 296 7 
E 37 358 2 
E 37 408 5 
E 37 410 7 
E 37 466 4 
E 38 227 6 
E 38 307 2 
E 39 41 6 
E 40 287 10 
E 40 437 8 
E 41 80 2 
E 41 182 7 
E 42 52 8 
E 42 291 9 
E 43 157 10 
E 43 308 6 
E 43 383 7 
E 44 133 1 
E 44 441 7 
E 44 480 8 
E 44 494 7 
E 45 100 6 
E 45 144 4 
E 45 167 10 
E 45 179 5 
E 45 495 5 
E 46 51 1 
E 46 457 2 
E 47 58 10 
E 47 132 8 
E 47 176 5 
E 47 193 3 
E 47 275 8 
E 47 352 10 
E 48 88 10 
E 48 228 4 
E 48 487 3 
E 49 73 3 
E 49 273 5 
E 49 372 5 
E 50 59 9 
E 50 439 5 
E 51 161 5 
E 51 197 10 
E 52 82 10 
E 52 138 10 
E 52 479 9 
E 53 279 3 
E 53 335 2 
E 54 196 2 
E 54 242 6 
E 54 299 6 
E 54 317 8 
E 54 319 8 
E 54 420 6 
E 55 149 6 
E 55 242 1 
E 55 284 4 
E 55 430 3 
E 56 241 3 
E 56 253 8 
E 56 303 5 
E 57 96 6 
E 57 204 4 
E 57 291 6 
E 57 338 7 
E 57 379 3 
E 57 381 10 
E 57 468 10 
E 58 153 10 
E 58 161 4 
E 58 195 6 
E 59 242 3 
E 59 256 3 
E 59 367 2 
E 60 192 8 
E 60 370 7 
E 60 373 4 
E 60 415 3 
E 61 333 4 
E 61 391 2 
E 62 217 6 
E 62 400 6 
E 63 408 5 
E 64 201 1 
E 64 272 3 
E 64 388 9 
E 65 223 8 
E 65 456 9 
E 65 465 6 
E 66 102 7 
E 66 230 7 
E 66 449 10 
E 67 69 5 
E 67 225 4 
E 67 244 8 
E 67 252 10 
E 67 258 1 
E 67 300 5 
E 67 303 1 
E 67 360 6 
E 68 91 8 
E 68 212 5 
E 68 389 1 
E 69 159 9 
E 69 168 8 
E 69 342 8 
E 70 111 1 
E 70 317 6 
E 70 402 9 
E 70 440 4 
E 71 298 10 
E 71 495 2 
E 72 294 5 
E 73 160 3 
E 73 290 9 
E 73 321 4 
E 73 323 4 
E 73 348 8 
E 74 78 1 
E 74 290 5 
E 74 359 8 
E 74 446 7 
E 74 483 9 
E 75 104 6 
E 75 477 2 
E 76 126 1 
E 76 182 8 
E 76 206 8 
E 76 447 8 
E 76 485 10 
E 76 494 9 
E 77 247 5 
E 77 374 4 
E 77 389 2 
E 77 493 8 
E 77 498 10 
E 78 280 6 
E 78 291 7 
E 78 329 4 
E 79 276 1 
E 80 149 10 
E 80 156 4 
E 80 178 2 
E 80 229 9 
E 80 252 10 
E 80 386 8 
E 81 104 4 
E 81 147 6 
E 81 340 8 
E 81 353 4 
E 81 407 6 
E 81 443 2 
E 82 87 3 
E 82 232 5 
E 82 279 1 
E 82 475 6 
E 83 314 1 
E 83 400 8 
E 84 101 10 
E 84 235 8 
E 84 298 3 
E 85 230 2 
E 85 350 6 
E 86 338 5 
E 86 405 8 
E 87 136 1 
E 87 169 2 
E 87 379 2 
E 88 317 5 
E 88 364 10 
E 88 480 8 
E 89 210 9 
E 89 262 3 
E 90 155 8 
E 90 216 3 
E 90 375 10 
E 90 470 9 
E 90 487 5 
E 91 243 7 
E 91 365 10 
E 91 375 2 
E 92 110 5 
E 92 164 3 
E 93 126 2 
E 93 203 9 
E 93 261 9 
E 93 331 8 
E 94 202 7 
E 94 263 9 
E 94 470 6 
E 94 473 5 
E 95 303 6 
E 96 246 5 
E 96 405 1 
E 96 473 4 
E 96 499 1 
E 97 265 1 
E 97 496 3 
E 98 226 6 
E 98 342 6 
E 99 212 4 
E 99 237 2 
E 99 352 2 
E 99 396 6 
E 100 208 7 
E 100 248 8 
E 100 378 8 
E 100 485 10 
E 100 497 5 
E 101 345 9 
E 101 373 2 
E 101 452 5 
E 102 124 9 
E 102 151 3 
E 102 173 1 
E 102 201 10 
E 102 325 5 
E 102 454 3 
E 103 161 1 
E 103 342 2 
E 104 336 8 
E 104 360 2 
E 104 380 8 
E 104 384 3 
E 104 454 5 
E 105 164 1 
E 105 255 10 
E 106 165 4 
E 106 210 6 
E 106 266 8 
E 106 368 6 
E 107 120 5 
E 107 278 4 
E 108 119 7 
E 108 268 1 
E 108 307 10 
E 108 434 3 
E 109 175 6 
E 109 387 5 
E 109 458 1 
E 110 401 7 
E 110 427 6 
E 111 168 3 
E 111 242 1 
E 111 277 7 
E 112 375 2 
E 112 381 6 
E 112 389 8 
E 113 194 2 
E 113 222 1 
E 113 294 9 
E 113 432 5 
E 113 471 8 
E 113 477 8 
E 114 145 7 
E 114 176 2 
E 114 200 6 
E 114 458 10 
E 115 169 6 
E 115 306 1 
E 115 456 8 
E 116 155 5 
E 116 255 9 
E 116 417 7 
E 116 446 3 
E 116 500 8 
E 117 203 6 
E 118 175 8 
E 118 360 3 
E 118 402 5 
E 119 160 9 
E 119 199 8 
E 119 238 8 
E 119 245 8 
E 119 289 5 
E 119 369 7 
E 119 378 4 
E 119 493 1 
E 120 303 7 
E 120 443 6 
E 121 292 9 
E 121 318 3 
E 121 439 9 
E 121 458 10 
E 121 476 1 
E 122 193 6 
E 122 243 6 
E 122 312 2 
E 122 393 10 
E 123 217 6 
E 123 340 3 
E 123 485 4 
E 124 173 3 
E 124 398 2 
E 124 419 7 
E 125 349 3 
E 125 428 4 
E 126 255 5 
E 126 283 9 
E 126 398 4 
E 126 440 4 
E 126 483 10 
E 127 178 5 
E 127 212 4 
E 127 331 2 
E 127 396 7 
E 128 167 10 
E 128 171 5 
E 128 390 2 
E 128 436 4 
E 129 148 2 
E 129 215 4 
E 129 265 2 
E 129 294 9 
E 129 344 8 
E 130 164 2 
E 130 174 1 
E 130 355 7 
E 131 198 2 
E 131 383 9 
E 132 252 10 
E 132 381 7 
E 132 453 4 
E 132 485 1 
E 133 293 9 
E 133 305 4 
E 133 445 5 
E 134 293 6 
E 134 380 2 
E 134 387 5 
E 134 394 2 
E 134 414 5 
E 135 278 5 
E 136 290 5 
E 136 306 3 
E 136 309 8 
E 136 334 5 
E 137 339 2 
E 138 181 3 
E 138 250 2 
E 138 261 1 
E 139 199 8 
E 140 195 8 
E 140 247 6 
E 140 491 3 
E 141 260 7 
E 141 296 3 
E 141 299 3 
E 141 469 9 
E 142 240 9 
E 142 289 5 
E 143 359 7 
E 143 431 3 
E 144 227 1 
E 144 257 3 
E 144 303 2 
E 144 404 1 
E 144 447 3 
E 145 425 10 
E 146 252 7 
E 146 326 4 
E 147 221 1 
E 147 224 3 
E 147 309 7 
E 147 452 5 
E 148 239 2 
E 148 481 9 
E 149 316 6 
E 149 456 10 
E 150 153 7 
E 150 190 9 
E 150 306 2 
E 150 313 9 
E 150 433 8 
E 151 155 10 
E 151 246 1 
E 151 400 6 
E 152 313 10 
E 152 389 10 
E 152 432 7 
E 152 457 10 
E 153 354 5 
E 153 428 5 
E 153 495 9 
E 154 370 1 
E 154 483 2 
E 155 246 9 
E 155 288 8 
E 155 366 6 
E 155 374 7 
E 156 301 2 
E 156 392 5 
E 157 177 4 
E 157 241 5 
E 157 305 9 
E 157 406 6 
E 158 327 6 
E 158 430 1 
E 158 466 4 
E 159 425 10 
E 160 411 2 
E 161 237 8 
E 161 266 8 
E 161 338 10 
E 161 439 1 
E 161 451 1 
E 162 452 6 
E 162 456 7 
E 163 322 8 
E 163 444 2 
E 164 283 10 
E 165 180 4 
E 165 185 10 
E 165 300 5 
E 165 301 5 
E 166 220 9 
E 166 483 8 
E 167 189 8 
E 167 193 1 
E 167 338 6 
E 167 424 6 
E 169 498 10 
E 170 332 8 
E 170 405 5 
E 170 490 10 
E 171 176 7 
E 171 255 4 
E 171 414 9 
E 172 343 1 
E 172 367 10 
E 172 396 10 
E 173 251 7 
E 173 252 8 
E 173 297 8 
E 173 299 9 
E 174 220 9 
E 174 424 7 
E 175 258 5 
E 175 423 6 
E 176 334 7 
E 176 478 3 
E 178 357 2 
E 179 285 8 
E 179 370 5 
E 181 381 1 
E 181 429 1 
E 181 458 8 
E 182 208 5 
E 182 433 1 
E 183 200 5 
E 183 220 9 
E 183 227 2 
E 183 457 8 
E 183 488 10 
E 184 318 6 
E 185 224 6 
E 186 187 4 
E 186 285 7 
E 187 318 7 
E 187 349 6 
E 187 403 4 
E 188 193 10 
E 188 303 10 
E 188 413 3 
E 188 492 10 
E 189 327 7 
E 189 346 6 
E 189 376 4 
E 189 409 3 
E 189 474 6 
E 190 308 10 
E 190 343 4 
E 190 456 9 
E 191 209 2 
E 191 427 9 
E 191 450 4 
E 192 397 3 
E 193 462 1 
E 194 196 7 
E 194 284 6 
E 194 304 5 
E 194 383 1 
E 195 206 10 
E 195 242 3 
E 195 366 5 
E 196 270 6 
E 196 432 5 
E 196 482 9 
E 197 286 6 
E 197 371 3 
E 197 448 3 
E 198 415 9 
E 199 226 9 
E 199 277 9 
E 199 413 9 
E 199 466 6 
E 199 482 5 
E 200 206 10 
E 200 313 9 
E 201 418 9 
E 201 430 9 
E 201 486 4 
E 202 285 4 
E 202 378 10 
E 203 387 5 
E 204 205 5 
E 204 209 4 
E 204 445 6 
E 205 353 10 
E 205 410 4 
E 206 406 9 
E 206 448 10 
E 207 226 10 
E 207 311 10 
E 207 356 6 
E 207 402 5 
E 207 452 6 
E 208 293 6 
E 209 265 9 
E 209 398 10 
E 209 454 8 
E 210 261 8 
E 212 228 7 
E 212 305 4 
E 212 338 8 
E 213 249 4 
E 214 253 3 
E 214 475 10 
E 215 234 1 
E 215 275 1 
E 215 297 7 
E 215 379 9 
E 215 459 4 
E 215 495 10 
E 216 329 3 
E 216 447 5 
E 217 229 9 
E 217 293 6 
E 217 312 8 
E 217 478 1 
E 218 285 10 
E 218 329 6 
E 219 248 8 
E 219 264 5 
E 220 332 8 
E 220 432 7 
E 221 273 4 
E 222 330 2 
E 222 431 4 
E 223 253 7 
E 224 278 2 
E 225 421 2 
E 225 484 3 
E 226 451 2 
E 227 231 5 
E 227 245 2 
E 228 292 2 
E 229 281 5 
E 229 356 6 
E 229 357 3 
E 229 401 2 
E 229 411 1 
E 229 436 2 
E 229 448 1 
E 229 490 6 
E 230 445 10 
E 232 302 6 
E 232 484 3 
E 233 291 2 
E 233 471 9 
E 233 489 10 
E 234 407 3 
E 235 294 5 
E 235 494 1 
E 236 379 2 
E 237 311 9 
E 238 304 3 
E 238 431 7 
E 239 271 4 
E 239 342 9 
E 239 440 7 
E 240 440 9 
E 242 344 8 
E 242 401 8 
E 242 489 10 
E 243 379 3 
E 243 447 1 
E 245 276 7 
E 245 277 3 
E 245 353 8 
E 245 484 7 
E 246 267 10 
E 246 277 6 
E 246 369 4 
E 247 472 9 
E 248 272 2 
E 248 281 8 
E 248 481 1 
E 249 377 9 
E 249 414 5 
E 249 453 6 
E 250 381 7 
E 250 420 6 
E 251 388 5 
E 251 453 8 
E 252 270 1 
E 252 438 8 
E 252 454 6 
E 252 456 6 
E 254 364 2 
E 254 410 4 
E 255 444 8 
E 257 335 4 
E 257 379 8 
E 257 455 2 
E 258 291 9 
E 258 397 2 
E 258 460 8 
E 259 408 5 
E 259 438 10 
E 259 440 9 
E 260 356 6 
E 260 387 4 
E 260 435 8 
E 261 391 2 
E 261 484 2 
E 261 491 9 
E 262 459 1 
E 263 277 4 
E 263 342 7 
E 263 378 8 
E 263 420 7 
E 264 289 7 
E 264 308 2 
E 264 327 8 
E 264 344 10 
E 264 356 1 
E 264 399 3 
E 265 280 10 
E 265 304 4 
E 266 280 1 
E 266 324 2 
E 266 344 6 
E 267 270 1 
E 267 374 5 
E 268 302 10 
E 268 411 10 
E 269 319 2 
E 270 476 1 
E 272 380 5 
E 272 400 2 
E 272 434 6 
E 273 321 8 
E 273 371 1 
E 274 384 6 
E 274 405 9 
E 275 482 9 
E 275 483 2 
E 276 282 3 
E 278 294 6 
E 278 351 5 
E 279 281 4 
E 280 423 8 
E 281 412 7 
E 281 449 6 
E 284 340 10 
E 285 287 7 
E 286 436 10 
E 286 475 2 
E 287 330 5 
E 287 358 8 
E 287 367 10 
E 287 403 1 
E 288 402 1 
E 288 444 9 
E 288 448 5 
E 289 351 9 
E 289 373 8 
E 289 388 8 
E 291 302 4 
E 291 352 7 
E 292 356 8 
E 294 300 9 
E 295 312 10 
E 295 338 7 
E 295 450 9 
E 296 355 8 
E 297 337 1 
E 297 393 4 
E 298 310 8 
E 299 351 2 
E 300 481 1 
E 301 363 9 
E 301 484 4 
E 302 396 8 
E 302 428 3 
E 303 378 10 
E 303 386 5 
E 303 408 2 
E 303 474 1 
E 303 498 7 
E 306 438 9 
E 307 464 3 
E 308 379 2 
E 309 487 9 
E 310 347 1 
E 310 349 1 
E 311 396 9 
E 312 374 6 
E 312 469 1 
E 313 391 3 
E 313 435 7 
E 314 319 1 
E 314 358 7 
E 314 404 9 
E 314 407 2 
E 314 451 1 
E 315 347 3 
E 315 395 1 
E 318 370 2 
E 318 373 1 
E 318 490 1 
E 320 329 7 
E 320 341 10 
E 320 419 1 
E 321 405 5 
E 322 496 1 
E 323 357 10 
E 324 443 5 
E 324 446 4 
E 324 496 9 
E 326 497 7 
E 327 399 3 
E 327 433 2 
E 327 456 7 
E 328 453 1 
E 330 366 5 
E 331 444 8 
E 333 335 8 
E 335 469 1 
E 337 381 5 
E 339 356 4 
E 340 418 9 
E 342 482 6 
E 343 388 5 
E 343 392 4 
E 343 468 1 
E 344 449 2 
E 344 484 10 
E 345 483 3 
E 345 486 7 
E 346 452 2 
E 347 383 10 
E 347 497 2 
E 348 362 2 
E 350 376 1 
E 350 380 10 
E 352 454 7 
E 357 467 4 
E 358 360 8 
E 358 472 6 
E 359 493 1 
E 360 404 5 
E 360 449 6 
E 360 477 3 
E 361 415 7 
E 361 465 7 
E 361 482 6 
E 362 380 9 
E 362 399 4 
E 362 499 4 
E 363 409 9 
E 363 423 7 
E 363 437 5 
E 363 493 5 
E 366 431 8 
E 366 458 1 
E 366 469 4 
E 367 433 6 
E 368 499 1 
E 369 378 4 
E 370 428 7 
E 371 405 4 
E 372 450 4 
E 373 443 1 
E 374 383 3 
E 374 485 9 
E 376 477 2 
E 382 389 7 
E 384 445 1 
E 385 412 9 
E 385 480 3 
E 386 462 8 
E 390 452 2 
E 390 475 2 
E 391 427 5 
E 396 460 10 
E 398 406 7 
E 398 408 5 
E 398 486 8 
E 399 434 8 
E 406 477 9 
E 409 413 10 
E 409 424 9 
E 411 422 6 
E 412 424 6 
E 413 450 5 
E 414 454 2 
E 416 438 5 
E 416 446 4 
E 416 493 1 
E 421 423 1 
E 421 427 1 
E 424 448 3 
E 424 465 2 
E 426 484 3 
E 433 489 2 
E 435 461 5 
E 435 479 4 
E 435 500 7 
E 436 454 7 
E 436 484 4 
E 437 453 3 
E 438 468 2 
E 438 471 3 
E 438 487 2 
E 440 466 5 
E 440 491 1 
E 441 474 5 
E 441 495 1 
E 442 448 10 
E 443 455 7 
E 450 466 7 
E 458 482 1 
E 458 484 4 
E 460 488 4 
E 466 484 8 
E 467 478 8 
E 470 486 9 
E 491 498 6 
END 

SECTION ProfitableVertices 
ProfitableVertices 125 
PV 1 1
PV 5 3
PV 7 9
PV 10 2
PV 11 4
PV 14 7
PV 18 1
PV 19 9
PV 20 8
PV 22 3
PV 26 9
PV 29 5
PV 30 9
PV 31 3
PV 32 8
PV 38 7
PV 39 6
PV 40 1
PV 42 1
PV 44 5
PV 56 5
PV 59 7
PV 66 5
PV 74 9
PV 79 7
PV 87 8
PV 88 7
PV 90 6
PV 96 7
PV 97 6
PV 102 9
PV 106 3
PV 111 8
PV 117 1
PV 120 1
PV 130 7
PV 135 7
PV 136 9
PV 141 3
PV 143 5
PV 144 2
PV 149 9
PV 152 8
PV 153 6
PV 154 1
PV 158 3
PV 159 4
PV 160 2
PV 164 7
PV 165 6
PV 168 1
PV 172 4
PV 180 6
PV 187 1
PV 189 8
PV 190 6
PV 191 6
PV 195 2
PV 206 3
PV 207 7
PV 210 4
PV 212 7
PV 224 7
PV 234 4
PV 236 8
PV 238 6
PV 250 3
PV 252 3
PV 258 8
PV 259 1
PV 261 3
PV 264 9
PV 267 4
PV 269 9
PV 270 3
PV 272 8
PV 278 2
PV 280 6
PV 282 2
PV 283 5
PV 290 3
PV 294 3
PV 295 5
PV 299 7
PV 302 5
PV 309 8
PV 316 7
PV 317 8
PV 319 1
PV 324 8
PV 328 2
PV 334 3
PV 336 9
PV 341 6
PV 346 7
PV 362 6
PV 369 4
PV 372 6
PV 373 7
PV 378 4
PV 393 5
PV 406 5
PV 407 7
PV 419 6
PV 424 2
PV 425 8
PV 436 6
PV 437 7
PV 438 1
PV 439 1
PV 444 7
PV 449 8
PV 452 4
PV 464 7
PV 465 1
PV 472 4
PV 473 9
PV 476 3
PV 478 9
PV 479 1
PV 482 6
PV 483 4
PV 486 6
PV 493 3
PV 500 4
END 

EOF 
